\ENCODING=ISO-8859-1
\Problem name: problem0

Minimize
    obj: w1 + w2 + w3 + w4

Subject To
    c1:  x11 + x12 + x13 + x14 = 1
    c2:  x21 + x22 + x23 + x24 = 1
    c3:  x31 + x32 + x33 + x34 = 1
    c4:  x41 + x42 + x43 + x44 = 1

    c5:  x11 + x21 <= 1
    c6:  x12 + x22 <= 1
    c7:  x13 + x23 <= 1
    c8:  x14 + x24 <= 1

    c9:  x11 + x31 <= 1
    c10: x12 + x32 <= 1
    c11: x13 + x33 <= 1
    c12: x14 + x34 <= 1

    c13: x21 + x31 <= 1
    c14: x22 + x32 <= 1
    c15: x23 + x33 <= 1
    c16: x24 + x34 <= 1

    c17: x31 + x41 <= 1
    c18: x32 + x42 <= 1
    c19: x33 + x43 <= 1
    c20: x34 + x44 <= 1

    c21: x11 - w1 <= 0
    c22: x12 - w2 <= 0
    c23: x13 - w3 <= 0
    c24: x14 - w4 <= 0

    c25: x21 - w1 <= 0
    c26: x22 - w2 <= 0
    c27: x23 - w3 <= 0
    c28: x24 - w4 <= 0

    c29: x31 - w1 <= 0
    c30: x32 - w2 <= 0
    c31: x33 - w3 <= 0
    c32: x34 - w4 <= 0

    c33: x41 - w1 <= 0
    c34: x42 - w2 <= 0
    c35: x43 - w3 <= 0
    c36: x44 - w4 <= 0

\Bounds
\    x11 >= 0
\    x12 >= 0
\    x13 >= 0
\    x14 >= 0
\
\    x21 >= 0
\    x22 >= 0
\    x23 >= 0
\    x24 >= 0
\
\    x31 >= 0
\    x32 >= 0
\    x33 >= 0
\    x34 >= 0
\
\    x41 >= 0
\    x42 >= 0
\    x43 >= 0
\    x44 >= 0
\
\    x11 <= 1
\    x12 <= 1
\    x13 <= 1
\    x14 <= 1
\
\    x21 <= 1
\    x22 <= 1
\    x23 <= 1
\    x24 <= 1
\
\    x31 <= 1
\    x32 <= 1
\    x33 <= 1
\    x34 <= 1
\
\    x41 <= 1
\    x42 <= 1
\    x43 <= 1
\    x44 <= 1

Binary
    x11 x12 x13 x14 x21 x22 x23 x24 x31 x32 x33 x34 x41 x42 x43 x44 w1 w2 w3 w4

End